experiments/knapsack_bounded/knapsack_bounded_15_6.mps
NAME
ROWS
 N  OBJ
 L  c1
 L  c2
 L  c3
 L  c4
 L  c5
 L  c6
 L  c7
 L  c8
 L  c9
 L  c10
 L  c11
 L  c12
 L  c13
 L  c14
 L  c15
 L  c16
COLUMNS
    MARKER    'MARKER'                 'INTORG'
    x[1]      c1        592
    x[1]      c2        1
    x[1]      OBJ       -504
    x[2]      c1        509
    x[2]      c3        1
    x[2]      OBJ       -173
    x[3]      c1        914
    x[3]      c4        1
    x[3]      OBJ       -92
    x[4]      c1        516
    x[4]      c5        1
    x[4]      OBJ       -251
    x[5]      c1        693
    x[5]      c6        1
    x[5]      OBJ       -586
    x[6]      c1        151
    x[6]      c7        1
    x[6]      OBJ       -732
    x[7]      c1        845
    x[7]      c8        1
    x[7]      OBJ       -123
    x[8]      c1        319
    x[8]      c9        1
    x[8]      OBJ       -288
    x[9]      c1        569
    x[9]      c10       1
    x[9]      OBJ       -104
    x[10]     c1        797
    x[10]     c11       1
    x[10]     OBJ       -706
    x[11]     c1        24
    x[11]     c12       1
    x[11]     OBJ       -842
    x[12]     c1        364
    x[12]     c13       1
    x[12]     OBJ       -541
    x[13]     c1        765
    x[13]     c14       1
    x[13]     OBJ       -236
    x[14]     c1        249
    x[14]     c15       1
    x[14]     OBJ       -284
    x[15]     c1        467
    x[15]     c16       1
    x[15]     OBJ       -787
    MARKER    'MARKER'                 'INTEND'
RHS
    rhs       c1        3887
    rhs       c2        1
    rhs       c3        8
    rhs       c4        1
    rhs       c5        3
    rhs       c6        2
    rhs       c7        5
    rhs       c8        8
    rhs       c9        8
    rhs       c10       6
    rhs       c11       3
    rhs       c12       4
    rhs       c13       5
    rhs       c14       2
    rhs       c15       9
    rhs       c16       10
RANGES
BOUNDS
 LO bounds    x[1]      0
 PL bounds    x[1]
 LO bounds    x[2]      0
 PL bounds    x[2]
 LO bounds    x[3]      0
 PL bounds    x[3]
 LO bounds    x[4]      0
 PL bounds    x[4]
 LO bounds    x[5]      0
 PL bounds    x[5]
 LO bounds    x[6]      0
 PL bounds    x[6]
 LO bounds    x[7]      0
 PL bounds    x[7]
 LO bounds    x[8]      0
 PL bounds    x[8]
 LO bounds    x[9]      0
 PL bounds    x[9]
 LO bounds    x[10]     0
 PL bounds    x[10]
 LO bounds    x[11]     0
 PL bounds    x[11]
 LO bounds    x[12]     0
 PL bounds    x[12]
 LO bounds    x[13]     0
 PL bounds    x[13]
 LO bounds    x[14]     0
 PL bounds    x[14]
 LO bounds    x[15]     0
 PL bounds    x[15]
ENDATA
